p cnf 56 196
-3 4 0
3 4 0
-5 -2 0
-5 4 0
2 -4 5 0
6 -1 0
6 -5 0
1 5 -6 0
-8 9 0
8 9 0
-10 7 0
-10 -9 0
-7 9 10 0
-11 -2 0
-11 10 0
2 -10 11 0
-12 11 0
-12 -11 0
14 -13 0
14 -4 0
13 4 -14 0
10 14 -15 0
-10 -14 -15 0
10 -14 15 0
-10 14 15 0
-16 -13 0
-16 10 0
13 -10 16 0
10 16 -17 0
-10 -16 -17 0
10 -16 17 0
-10 16 17 0
-19 -18 0
-19 3 0
18 -3 19 0
20 -17 0
20 -19 0
17 19 -20 0
-15 20 -21 0
15 -20 -21 0
-15 -20 21 0
15 20 21 0
22 -7 0
22 11 0
7 -11 -22 0
-23 -7 0
-23 22 0
7 -22 23 0
-24 -22 0
-24 -23 0
22 23 24 0
-25 11 0
-25 -10 0
-11 10 25 0
27 -26 0
27 26 0
-28 27 0
-28 26 0
-27 -26 28 0
-29 -8 0
-29 28 0
8 -28 29 0
-30 -25 0
-30 29 0
25 -29 30 0
24 30 -31 0
-24 -30 -31 0
24 -30 31 0
-24 30 31 0
32 31 0
32 -27 0
-31 27 -32 0
-33 13 0
-33 26 0
-13 -26 33 0
-31 7 -34 0
31 -7 -34 0
-31 -7 34 0
31 7 34 0
-33 -34 -35 0
33 34 -35 0
-33 34 35 0
33 -34 35 0
36 -32 0
36 35 0
32 -35 -36 0
21 -36 -37 0
-21 36 -37 0
21 36 37 0
-21 -36 37 0
38 -12 0
38 37 0
12 -37 -38 0
-6 -38 -39 0
6 38 -39 0
-6 38 39 0
6 -38 39 0
40 28 0
40 16 0
-28 -16 -40 0
-43 -42 0
-43 -24 0
42 24 43 0
-43 -19 -44 0
43 19 -44 0
-43 19 44 0
43 -19 44 0
-41 -44 -45 0
41 44 -45 0
-41 44 45 0
41 -44 45 0
-40 -45 -46 0
40 45 -46 0
-40 45 46 0
40 -45 46 0
47 30 0
47 -13 0
-30 13 -47 0
4 47 -48 0
-4 -47 -48 0
4 -47 48 0
-4 47 48 0
-29 -7 -49 0
29 7 -49 0
-29 7 49 0
29 -7 49 0
50 27 0
50 -49 0
-27 49 -50 0
48 -50 -51 0
-48 50 -51 0
48 50 51 0
-48 -50 51 0
29 9 -52 0
-29 -9 -52 0
29 -9 52 0
-29 9 52 0
53 -34 0
53 -52 0
34 52 -53 0
51 53 -54 0
-51 -53 -54 0
51 -53 54 0
-51 53 54 0
55 -46 0
55 -54 0
46 54 -55 0
-56 39 0
-56 55 0
-39 -55 56 0
46 -31 -17 26 0
19 54 35 -45 0
-55 18 43 0
56 -3 0
22 -9 0
-35 20 -15 0
-7 37 43 21 -1 47 0
-28 -31 -36 2 -42 -17 0
27 -28 26 -13 34 0
-36 28 -6 0
15 33 -31 -28 42 -10 0
12 -21 -49 0
51 -10 7 26 2 0
16 43 -42 0
-23 -13 6 56 0
-26 20 42 -39 13 0
-4 25 50 -36 -40 0
43 8 -40 0
-51 -37 4 -8 0
-52 56 0
-23 -34 0
51 -7 0
54 -14 -49 -29 0
-32 30 52 20 41 0
31 2 38 41 17 0
-13 39 0
44 -25 29 31 37 -7 0
-17 -7 54 31 55 0
11 20 0
41 13 20 0
38 28 41 0
27 21 0
21 10 51 18 25 0
-32 52 -27 47 -20 0
-9 2 15 -16 21 0
21 -29 -47 -10 45 3 0
25 42 -8 0
-43 -28 23 0
36 -39 0
48 -41 0
-19 -34 0
-30 10 -14 -53 -51 -43 0
47 -40 0
36 37 -49 0
33 15 0
56 0
